100 62504

 244 519
967 52
959 233
248 493
349 311
896 182
967 505
444 323
321 259
527 464
688 134
274 928
737 868
52 708
50 107
387 776
354 808
316 768
492 114
321 644
193 835
310 578
975 647
412 459
445 529
577 35
984 639
242 82
682 436
716 293
608 546
89 134
677 692
65 796
597 164
740 105
211 146
842 878
31 529
844 468
461 107
218 650
134 868
954 829
73 627
200 76
348 113
621 50
545 258
126 136
290 261
239 386
214 943
412 611
705 835
218 711
367 113
391 736
977 276
955 640
801 341
242 998
69 264
317 280
267 931
506 25
778 697
859 726
845 837
360 975
688 976
313 66
61 822
702 647
10 648
410 129
330 651
694 983
767 912
305 440
812 40
294 363
447 827
728 702
693 460
988 56
226 427
663 470
610 929
916 642
157 312
752 526
569 67
275 973
475 361
334 478
580 356
890 683
570 663
632 716
